50
13629

865 867
395 396
777 777
912 912
431 432
42 42
266 267
989 990
524 525
498 498
415 417
941 942
803 804
850 852
311 312
992 993
489 489
367 369
598 600
914 915
930 930
224 225
517 519
143 144
289 291
144 144
774 774
98 99
634 636
819 819
257 258
932 933
546 546
723 723
830 831
617 618
924 924
151 153
318 318
102 102
748 750
76 78
921 921
871 873
701 702
339 339
484 486
574 576
104 105
363 363
